NAME: Golden_8
TYPE: CVRP
COMMENT: 11663.55
DIMENSION: 441
CAPACITY: 900
DISTANCE: 1200.00000
VEHICLES: 11
EDGE_WEIGHT_TYPE: FUNCTION
EDGE_WEIGHT_FORMAT: EUC_2D
NODE_COORD_TYPE: TWOD_COORDS
NODE_COORD_SECTION
1 30.00000 0.00000
2 29.69460 4.26940
3 28.78480 8.45200
4 27.28900 12.46250
5 25.23760 16.21920
6 22.67250 19.64580
7 19.64580 22.67250
8 16.21920 25.23760
9 12.46240 27.28900
10 8.45200 28.78480
11 4.26940 29.69460
12 0.00000 30.00000
13 -4.26940 29.69460
14 -8.45200 28.78480
15 -12.46250 27.28900
16 -16.21920 25.23760
17 -19.64580 22.67250
18 -22.67250 19.64580
19 -25.23760 16.21920
20 -27.28900 12.46240
21 -28.78480 8.45200
22 -29.69460 4.26940
23 -30.00000 0.00000
24 -29.69460 -4.26940
25 -28.78480 -8.45200
26 -27.28900 -12.46250
27 -25.23760 -16.21920
28 -22.67250 -19.64580
29 -19.64580 -22.67250
30 -16.21920 -25.23760
31 -12.46240 -27.28900
32 -8.45200 -28.78480
33 -4.26940 -29.69460
34 0.00000 -30.00000
35 4.26940 -29.69460
36 8.45200 -28.78480
37 12.46250 -27.28900
38 16.21920 -25.23760
39 19.64580 -22.67250
40 22.67250 -19.64580
41 25.23760 -16.21920
42 27.28900 -12.46240
43 28.78480 -8.45200
44 29.69460 -4.26940
45 60.00000 0.00000
46 59.38930 8.53890
47 57.56960 16.90400
48 54.57790 24.92490
49 50.47520 32.43840
50 45.34500 39.29160
51 39.29160 45.34500
52 32.43840 50.47520
53 24.92490 54.57790
54 16.90400 57.56960
55 8.53890 59.38930
56 0.00000 60.00000
57 -8.53890 59.38930
58 -16.90400 57.56960
59 -24.92490 54.57790
60 -32.43850 50.47520
61 -39.29160 45.34500
62 -45.34500 39.29160
63 -50.47520 32.43840
64 -54.57790 24.92490
65 -57.56960 16.90390
66 -59.38930 8.53890
67 -60.00000 0.00000
68 -59.38930 -8.53890
69 -57.56960 -16.90400
70 -54.57790 -24.92490
71 -50.47520 -32.43850
72 -45.34500 -39.29160
73 -39.29160 -45.34500
74 -32.43840 -50.47520
75 -24.92490 -54.57790
76 -16.90390 -57.56960
77 -8.53890 -59.38930
78 0.00000 -60.00000
79 8.53890 -59.38930
80 16.90400 -57.56960
81 24.92490 -54.57790
82 32.43850 -50.47520
83 39.29170 -45.34500
84 45.34500 -39.29160
85 50.47520 -32.43840
86 54.57790 -24.92490
87 57.56960 -16.90390
88 59.38930 -8.53890
89 90.00000 0.00000
90 89.08390 12.80830
91 86.35440 25.35590
92 81.86690 37.38740
93 75.71280 48.65770
94 68.01750 58.93750
95 58.93750 68.01750
96 48.65770 75.71280
97 37.38730 81.86690
98 25.35590 86.35440
99 12.80830 89.08390
100 0.00000 90.00000
101 -12.80830 89.08390
102 -25.35590 86.35440
103 -37.38740 81.86690
104 -48.65770 75.71280
105 -58.93750 68.01750
106 -68.01750 58.93750
107 -75.71280 48.65770
108 -81.86690 37.38730
109 -86.35440 25.35590
110 -89.08390 12.80830
111 -90.00000 0.00000
112 -89.08390 -12.80830
113 -86.35440 -25.35590
114 -81.86690 -37.38740
115 -75.71280 -48.65770
116 -68.01750 -58.93750
117 -58.93750 -68.01750
118 -48.65770 -75.71280
119 -37.38730 -81.86690
120 -25.35590 -86.35440
121 -12.80830 -89.08390
122 0.00000 -90.00000
123 12.80830 -89.08390
124 25.35590 -86.35440
125 37.38740 -81.86690
126 48.65770 -75.71280
127 58.93750 -68.01750
128 68.01750 -58.93750
129 75.71280 -48.65770
130 81.86690 -37.38730
131 86.35440 -25.35590
132 89.08390 -12.80830
133 120.00000 0.00000
134 118.77860 17.07780
135 115.13920 33.80790
136 109.15580 49.84980
137 100.95040 64.87690
138 90.68990 78.58330
139 78.58330 90.68990
140 64.87690 100.95040
141 49.84980 109.15580
142 33.80790 115.13920
143 17.07780 118.77860
144 0.00000 120.00000
145 -17.07780 118.77860
146 -33.80790 115.13920
147 -49.84980 109.15580
148 -64.87690 100.95040
149 -78.58330 90.68990
150 -90.69000 78.58330
151 -100.95040 64.87690
152 -109.15580 49.84980
153 -115.13920 33.80790
154 -118.77860 17.07780
155 -120.00000 0.00000
156 -118.77860 -17.07780
157 -115.13920 -33.80790
158 -109.15580 -49.84980
159 -100.95040 -64.87690
160 -90.68990 -78.58330
161 -78.58330 -90.69000
162 -64.87690 -100.95040
163 -49.84980 -109.15580
164 -33.80790 -115.13920
165 -17.07780 -118.77860
166 0.00000 -120.00000
167 17.07780 -118.77860
168 33.80790 -115.13920
169 49.84980 -109.15580
170 64.87690 -100.95040
171 78.58330 -90.68990
172 90.69000 -78.58330
173 100.95040 -64.87690
174 109.15580 -49.84980
175 115.13920 -33.80790
176 118.77860 -17.07780
177 150.00000 0.00000
178 148.47321 21.34720
179 143.92400 42.25990
180 136.44479 62.31230
181 126.18800 81.09610
182 113.36240 98.22910
183 98.22910 113.36240
184 81.09610 126.18800
185 62.31220 136.44479
186 42.25990 143.92400
187 21.34720 148.47321
188 0.00000 150.00000
189 -21.34720 148.47321
190 -42.25990 143.92400
191 -62.31230 136.44479
192 -81.09610 126.18800
193 -98.22910 113.36240
194 -113.36240 98.22910
195 -126.18800 81.09610
196 -136.44479 62.31220
197 -143.92400 42.25990
198 -148.47321 21.34720
199 -150.00000 0.00000
200 -148.47321 -21.34720
201 -143.92390 -42.25990
202 -136.44479 -62.31230
203 -126.18800 -81.09610
204 -113.36240 -98.22910
205 -98.22910 -113.36240
206 -81.09610 -126.18800
207 -62.31220 -136.44479
208 -42.25990 -143.92400
209 -21.34720 -148.47321
210 0.00000 -150.00000
211 21.34720 -148.47321
212 42.25990 -143.92390
213 62.31230 -136.44479
214 81.09610 -126.18800
215 98.22910 -113.36240
216 113.36240 -98.22910
217 126.18800 -81.09610
218 136.44479 -62.31220
219 143.92400 -42.25990
220 148.47321 -21.34720
221 180.00000 0.00000
222 178.16789 25.61670
223 172.70869 50.71190
224 163.73380 74.77470
225 151.42560 97.31530
226 136.03490 117.87490
227 117.87490 136.03490
228 97.31530 151.42560
229 74.77470 163.73380
230 50.71190 172.70869
231 25.61670 178.16789
232 0.00000 180.00000
233 -25.61670 178.16789
234 -50.71190 172.70869
235 -74.77470 163.73370
236 -97.31540 151.42560
237 -117.87490 136.03490
238 -136.03490 117.87490
239 -151.42560 97.31530
240 -163.73380 74.77470
241 -172.70869 50.71180
242 -178.16789 25.61670
243 -180.00000 0.00000
244 -178.16789 -25.61670
245 -172.70869 -50.71190
246 -163.73370 -74.77470
247 -151.42560 -97.31540
248 -136.03490 -117.87490
249 -117.87490 -136.03490
250 -97.31530 -151.42560
251 -74.77470 -163.73380
252 -50.71180 -172.70869
253 -25.61660 -178.16789
254 0.00000 -180.00000
255 25.61670 -178.16789
256 50.71190 -172.70869
257 74.77470 -163.73370
258 97.31540 -151.42560
259 117.87500 -136.03490
260 136.03490 -117.87490
261 151.42560 -97.31530
262 163.73380 -74.77470
263 172.70869 -50.71180
264 178.16789 -25.61660
265 210.00000 0.00000
266 207.86250 29.88610
267 201.49350 59.16380
268 191.02271 87.23720
269 176.66319 113.53460
270 158.70740 137.52080
271 137.52080 158.70740
272 113.53460 176.66319
273 87.23710 191.02271
274 59.16380 201.49350
275 29.88610 207.86250
276 0.00000 210.00000
277 -29.88610 207.86250
278 -59.16380 201.49350
279 -87.23720 191.02271
280 -113.53460 176.66319
281 -137.52080 158.70740
282 -158.70740 137.52071
283 -176.66330 113.53460
284 -191.02271 87.23710
285 -201.49350 59.16380
286 -207.86250 29.88610
287 -210.00000 0.00000
288 -207.86250 -29.88610
289 -201.49350 -59.16390
290 -191.02271 -87.23720
291 -176.66319 -113.53460
292 -158.70740 -137.52080
293 -137.52071 -158.70740
294 -113.53460 -176.66330
295 -87.23710 -191.02271
296 -59.16380 -201.49350
297 -29.88610 -207.86250
298 0.00000 -210.00000
299 29.88610 -207.86250
300 59.16390 -201.49350
301 87.23720 -191.02271
302 113.53460 -176.66319
303 137.52080 -158.70740
304 158.70740 -137.52071
305 176.66330 -113.53450
306 191.02271 -87.23710
307 201.49350 -59.16380
308 207.86250 -29.88610
309 240.00000 0.00000
310 237.55710 34.15560
311 230.27831 67.61580
312 218.31171 99.69960
313 201.90080 129.75380
314 181.37990 157.16660
315 157.16660 181.37990
316 129.75380 201.90080
317 99.69960 218.31171
318 67.61580 230.27831
319 34.15560 237.55710
320 0.00000 240.00000
321 -34.15560 237.55710
322 -67.61580 230.27831
323 -99.69960 218.31171
324 -129.75380 201.90080
325 -157.16660 181.37990
326 -181.37990 157.16660
327 -201.90089 129.75380
328 -218.31171 99.69960
329 -230.27831 67.61580
330 -237.55710 34.15550
331 -240.00000 0.00000
332 -237.55710 -34.15560
333 -230.27831 -67.61580
334 -218.31171 -99.69960
335 -201.90080 -129.75380
336 -181.37990 -157.16660
337 -157.16650 -181.37990
338 -129.75380 -201.90089
339 -99.69960 -218.31171
340 -67.61580 -230.27831
341 -34.15550 -237.55710
342 0.00000 -240.00000
343 34.15560 -237.55710
344 67.61580 -230.27831
345 99.69960 -218.31171
346 129.75380 -201.90080
347 157.16660 -181.37990
348 181.37990 -157.16650
349 201.90089 -129.75380
350 218.31171 -99.69960
351 230.27831 -67.61580
352 237.55721 -34.15550
353 270.00000 0.00000
354 267.25180 38.42500
355 259.06311 76.06780
356 245.60060 112.16210
357 227.13850 145.97301
358 204.05240 176.81239
359 176.81239 204.05240
360 145.97301 227.13850
361 112.16200 245.60060
362 76.06780 259.06311
363 38.42500 267.25180
364 0.00000 270.00000
365 -38.42500 267.25180
366 -76.06780 259.06311
367 -112.16210 245.60060
368 -145.97301 227.13840
369 -176.81239 204.05240
370 -204.05240 176.81239
371 -227.13850 145.97301
372 -245.60060 112.16200
373 -259.06311 76.06780
374 -267.25180 38.42500
375 -270.00000 0.00000
376 -267.25180 -38.42500
377 -259.06311 -76.06780
378 -245.60060 -112.16210
379 -227.13840 -145.97301
380 -204.05240 -176.81239
381 -176.81239 -204.05240
382 -145.97301 -227.13850
383 -112.16200 -245.60060
384 -76.06780 -259.06311
385 -38.42500 -267.25180
386 0.00000 -270.00000
387 38.42500 -267.25180
388 76.06780 -259.06311
389 112.16210 -245.60060
390 145.97310 -227.13840
391 176.81239 -204.05240
392 204.05240 -176.81239
393 227.13850 -145.97301
394 245.60069 -112.16200
395 259.06311 -76.06770
396 267.25180 -38.42500
397 300.00000 0.00000
398 296.94641 42.69450
399 287.84790 84.51980
400 272.88959 124.62450
401 252.37610 162.19220
402 226.72490 196.45821
403 196.45821 226.72490
404 162.19220 252.37610
405 124.62450 272.88959
406 84.51980 287.84790
407 42.69440 296.94641
408 0.00000 300.00000
409 -42.69450 296.94641
410 -84.51980 287.84790
411 -124.62450 272.88959
412 -162.19231 252.37610
413 -196.45821 226.72490
414 -226.72490 196.45821
415 -252.37610 162.19220
416 -272.88959 124.62450
417 -287.84790 84.51970
418 -296.94641 42.69440
419 -300.00000 0.00000
420 -296.94641 -42.69450
421 -287.84790 -84.51980
422 -272.88959 -124.62450
423 -252.37601 -162.19231
424 -226.72490 -196.45830
425 -196.45821 -226.72490
426 -162.19220 -252.37610
427 -124.62450 -272.88959
428 -84.51970 -287.84790
429 -42.69440 -296.94641
430 0.00000 -300.00000
431 42.69450 -296.94641
432 84.51980 -287.84790
433 124.62450 -272.88959
434 162.19231 -252.37601
435 196.45830 -226.72479
436 226.72490 -196.45821
437 252.37610 -162.19220
438 272.88959 -124.62450
439 287.84790 -84.51970
440 296.94641 -42.69440
DEMAND_SECTION
1 10
2 30
3 30
4 10
5 10
6 30
7 30
8 10
9 10
10 30
11 30
12 10
13 10
14 30
15 30
16 10
17 10
18 30
19 30
20 10
21 10
22 30
23 30
24 10
25 10
26 30
27 30
28 10
29 10
30 30
31 30
32 10
33 10
34 30
35 30
36 10
37 10
38 30
39 30
40 10
41 10
42 30
43 30
44 10
45 10
46 30
47 30
48 10
49 10
50 30
51 30
52 10
53 10
54 30
55 30
56 10
57 10
58 30
59 30
60 10
61 10
62 30
63 30
64 10
65 10
66 30
67 30
68 10
69 10
70 30
71 30
72 10
73 10
74 30
75 30
76 10
77 10
78 30
79 30
80 10
81 10
82 30
83 30
84 10
85 10
86 30
87 30
88 10
89 10
90 30
91 30
92 10
93 10
94 30
95 30
96 10
97 10
98 30
99 30
100 10
101 10
102 30
103 30
104 10
105 10
106 30
107 30
108 10
109 10
110 30
111 30
112 10
113 10
114 30
115 30
116 10
117 10
118 30
119 30
120 10
121 10
122 30
123 30
124 10
125 10
126 30
127 30
128 10
129 10
130 30
131 30
132 10
133 10
134 30
135 30
136 10
137 10
138 30
139 30
140 10
141 10
142 30
143 30
144 10
145 10
146 30
147 30
148 10
149 10
150 30
151 30
152 10
153 10
154 30
155 30
156 10
157 10
158 30
159 30
160 10
161 10
162 30
163 30
164 10
165 10
166 30
167 30
168 10
169 10
170 30
171 30
172 10
173 10
174 30
175 30
176 10
177 10
178 30
179 30
180 10
181 10
182 30
183 30
184 10
185 10
186 30
187 30
188 10
189 10
190 30
191 30
192 10
193 10
194 30
195 30
196 10
197 10
198 30
199 30
200 10
201 10
202 30
203 30
204 10
205 10
206 30
207 30
208 10
209 10
210 30
211 30
212 10
213 10
214 30
215 30
216 10
217 10
218 30
219 30
220 10
221 10
222 30
223 30
224 10
225 10
226 30
227 30
228 10
229 10
230 30
231 30
232 10
233 10
234 30
235 30
236 10
237 10
238 30
239 30
240 10
241 10
242 30
243 30
244 10
245 10
246 30
247 30
248 10
249 10
250 30
251 30
252 10
253 10
254 30
255 30
256 10
257 10
258 30
259 30
260 10
261 10
262 30
263 30
264 10
265 10
266 30
267 30
268 10
269 10
270 30
271 30
272 10
273 10
274 30
275 30
276 10
277 10
278 30
279 30
280 10
281 10
282 30
283 30
284 10
285 10
286 30
287 30
288 10
289 10
290 30
291 30
292 10
293 10
294 30
295 30
296 10
297 10
298 30
299 30
300 10
301 10
302 30
303 30
304 10
305 10
306 30
307 30
308 10
309 10
310 30
311 30
312 10
313 10
314 30
315 30
316 10
317 10
318 30
319 30
320 10
321 10
322 30
323 30
324 10
325 10
326 30
327 30
328 10
329 10
330 30
331 30
332 10
333 10
334 30
335 30
336 10
337 10
338 30
339 30
340 10
341 10
342 30
343 30
344 10
345 10
346 30
347 30
348 10
349 10
350 30
351 30
352 10
353 10
354 30
355 30
356 10
357 10
358 30
359 30
360 10
361 10
362 30
363 30
364 10
365 10
366 30
367 30
368 10
369 10
370 30
371 30
372 10
373 10
374 30
375 30
376 10
377 10
378 30
379 30
380 10
381 10
382 30
383 30
384 10
385 10
386 30
387 30
388 10
389 10
390 30
391 30
392 10
393 10
394 30
395 30
396 10
397 10
398 30
399 30
400 10
401 10
402 30
403 30
404 10
405 10
406 30
407 30
408 10
409 10
410 30
411 30
412 10
413 10
414 30
415 30
416 10
417 10
418 30
419 30
420 10
421 10
422 30
423 30
424 10
425 10
426 30
427 30
428 10
429 10
430 30
431 30
432 10
433 10
434 30
435 30
436 10
437 10
438 30
439 30
440 10
DEPOT_SECTION
0.00000 0.00000
-1
EOF
